certificates/rado_a14_c132_N55.drat
9 -51 6 0
-9 6 -55 0
6 -55 0
d -9 6 -55 0
9 -55 0
-6 -55 0
d -7 -6 -55 0
-55 0
7 15 0
-7 -9 0
d -7 -1 -9 0
-9 0
3 0
15 0
49 0
-7 0
41 0
6 0
21 0
1 0
13 0
43 0
-10 0
-54 0
-51 0
0
